c read Graph
c width = 215
c time = 123 ms
c width = 17
c time = 259 ms
c width = 16
c time = 341 ms
c width = 15
c time = 384 ms
c width = 14
c time = 806 ms
c width = 14
c time = 4956 ms
s td 199 15 228
b 1 1 2 20
b 2 2 3 20 21
b 3 17 18 37 38
b 4 3 20 21 39
b 5 17 37 38 57
b 6 172 191 192 211
b 7 190 208 209 227
b 8 172 192 211 212
b 9 190 208 226 227
b 10 3 4 5 23
b 11 3 5 22 23 40 58
b 12 5 22 23 40 42 58 60
b 13 5 23 40 42 58 60 78
b 14 5 23 42 58 60 78 96
b 15 5 23 25 42 43 60 78 96
b 16 5 25 42 43 60 62 78 80 96
b 17 5 25 43 60 62 78 80 96 98
b 18 60 78 79 80 98
b 19 5 25 43 62 78 80 96 98 116
b 20 78 96 97 98 116
b 21 5 25 43 45 62 63 80 96 98 116
b 22 25 43 44 45 63
b 23 5 25 45 62 63 80 83 96 98 101 116 119 136 137
b 24 62 63 80 83 98 100 101 116 119 136 137
b 25 80 98 100 116 118 119 136 137
b 26 98 116 117 118 136
b 27 80 98 99 100 118
b 28 62 63 80 82 83 100 101
b 29 62 80 81 82 100
b 30 5 25 45 63 65 83 96 101 116 119 136 137
b 31 45 63 64 65 83
b 32 5 25 45 65 83 96 101 116 119 136 137 157 177 197 217
b 33 5 25 45 65 83 101 119 137 139 157 177 197 217
b 34 5 25 45 65 83 101 119 139 157 159 177 197 217
b 35 139 157 159 177 197 217
b 36 139 157 158 159 177
b 37 5 25 45 65 83 101 119 139 159 177 179 197 217
b 38 159 177 178 179 197
b 39 5 25 45 65 83 101 119 139 159 179 197 199 217
b 40 5 25 45 65 83 101 103 119 123 139 141 159 179 199 217
b 41 5 25 45 65 83 103 119 123 139 141 159 179 199 217
b 42 5 25 45 65 83 85 103 123 141 159 179 199 217
b 43 65 83 84 85 103
b 44 5 25 45 65 85 103 105 123 141 159 179 199 217
b 45 5 9 25 29 45 47 65 85 105 123 141 159 179 199 217
b 46 9 29 47 65 67 85 105 123 141 159 179 199 217
b 47 47 65 66 67 85
b 48 9 29 47 49 67 85 105 123 141 159 179 199 217
b 49 29 47 48 49 67
b 50 9 29 49 67 85 105 123 141 143 159 163 179 181 199 217
b 51 123 141 143 159 163 179 181 199 217
b 52 123 141 143 159 161 163 179 181 199
b 53 161 179 180 181 199
b 54 141 159 160 161 179
b 55 123 141 142 143 161
b 56 143 161 162 163 181
b 57 9 29 49 67 85 105 123 125 143 163 181 199 217
b 58 9 29 49 67 85 105 125 143 145 163 181 199 217
b 59 125 143 144 145 163
b 60 9 29 49 67 85 105 125 145 163 181 183 199 203 217 221
b 61 163 181 183 199 203 217 221
b 62 9 29 49 67 85 105 125 145 163 165 183 203 221
b 63 9 29 49 67 69 85 89 105 107 125 145 165 183 203 221
b 64 9 29 49 69 89 107 125 127 145 165 183 203 221
b 65 107 125 126 127 145
b 66 9 29 49 69 89 107 109 127 145 165 183 203 221
b 67 89 107 108 109 127
b 68 9 29 49 69 89 109 127 145 147 165 183 203 221
b 69 127 145 146 147 165
b 70 9 29 49 69 89 109 127 129 147 165 183 203 221
b 71 109 127 128 129 147
b 72 49 67 69 85 87 89 105 107 125
b 73 69 87 88 89 107
b 74 49 67 68 69 87
b 75 67 85 86 87 105
b 76 87 105 106 107 125
b 77 145 163 164 165 183
b 78 163 181 183 199 201 203 217 221
b 79 163 181 182 183 201
b 80 183 201 202 203 221
b 81 181 199 201 217 219 221
b 82 199 217 218 219
b 83 201 219 220 221
b 84 181 199 200 201 219
b 85 105 123 124 125 143
b 86 5 9 25 27 29 45 47 65
b 87 9 27 28 29 47
b 88 27 45 46 47 65
b 89 5 7 9 25 27 45
b 90 7 25 26 27 45
b 91 7 8 9 27
b 92 5 6 7 25
b 93 85 103 104 105 123
b 94 83 101 103 119 121 123 139 141 159
b 95 121 139 140 141 159
b 96 101 119 120 121 139
b 97 83 101 102 103 121
b 98 103 121 122 123 141
b 99 179 197 198 199 217
b 100 119 137 138 139 157
b 101 96 116 136 137 157 177 197 215 217
b 102 96 116 136 137 157 177 195 197 215
b 103 96 116 136 137 157 175 177 195 215
b 104 96 116 136 137 155 157 175 195 215
b 105 96 116 136 155 175 195 213 215
b 106 195 213 214 215
b 107 96 116 136 155 172 173 175 195 213
b 108 155 172 173 175 193 195 213
b 109 155 173 174 175 193
b 110 175 193 194 195 213
b 111 172 173 193 212 213
b 112 172 173 192 193 212
b 113 96 116 136 154 155 172 173
b 114 96 116 134 136 154 172
b 115 96 115 116 134
b 116 116 134 135 136 154
b 117 134 153 154 172
b 118 137 155 156 157 175
b 119 157 175 176 177 195
b 120 177 195 196 197 215
b 121 197 215 216 217
b 122 42 60 61 62 80
b 123 5 23 24 25 43
b 124 58 77 78 96
b 125 40 58 59 60 78
b 126 22 40 41 42 60
b 127 3 22 39 40 58
b 128 3 21 22 39 40
b 129 165 183 184 185 203
b 130 132 149 150 152 167 185 203 221 223
b 131 13 33 51 69 89 109 112 129 130 132 150 152
b 132 13 33 51 69 89 109 129 130 132 149 150 152
b 133 9 29 49 69 89 109 129 147 165 183 185 203 221
b 134 9 29 49 69 89 109 129 147 165 167 185 203 221
b 135 9 29 49 69 89 109 129 147 149 167 185 203 221
b 136 9 13 29 33 49 51 69 89 109 129 132 149 150 152
b 137 9 29 49 69 89 109 129 132 149 150 152 167 185 203 221
b 138 132 149 150 152 167 185 203 221
b 139 9 13 29 31 33 49 51 69
b 140 13 31 32 33 51
b 141 31 49 50 51 69
b 142 9 11 13 29 31 49
b 143 9 10 11 29
b 144 11 12 13 31
b 145 11 29 30 31 49
b 146 13 33 51 69 71 89 109 112 129 130 132 152
b 147 51 69 70 71 89
b 148 13 33 51 71 72 89 92 109 112 129 130 132 152
b 149 71 72 89 92 109 110 112 129 130
b 150 71 72 89 90 92 109 110
b 151 72 90 91 92 110
b 152 92 110 111 112 130
b 153 13 33 51 71 72 76 92 94 112 132 152
b 154 13 33 51 53 71 72 76 92 94 112
b 155 33 51 52 53 71
b 156 13 33 53 72 74 76 92 94 112
b 157 13 33 53 54 72 74 76 92 94
b 158 54 72 73 74 92
b 159 13 17 33 36 53 54 74 76 94
b 160 13 17 33 35 36 53 54
b 161 13 15 17 33 35 53
b 162 13 14 15 33
b 163 15 33 34 35 53
b 164 15 16 17 35
b 165 17 36 54 56 74 76 94
b 166 36 54 55 56 74
b 167 17 36 56 57 76
b 168 17 36 37 56 57
b 169 56 74 75 76 94
b 170 74 92 93 94 112
b 171 76 94 112 114 132 152
b 172 76 94 95 114
b 173 94 112 113 114 132
b 174 114 132 133 152
b 175 129 147 148 149 167
b 176 203 221 222 223
b 177 132 149 150 152 167 185 203 205 223
b 178 132 149 150 152 167 185 187 205 223
b 179 132 149 150 152 167 169 187 205 223
b 180 149 167 168 169 187
b 181 132 150 152 169 170 187 205 223
b 182 132 150 151 152 170
b 183 152 169 170 187 205 223 225
b 184 205 223 224 225
b 185 152 169 170 187 205 207 225
b 186 152 169 170 187 189 207 225
b 187 169 187 188 189 207
b 188 152 170 189 190 207 225
b 189 152 170 171 190
b 190 189 190 207 225 226
b 191 189 190 207 208 226
b 192 187 205 206 207 225
b 193 167 185 186 187 205
b 194 185 203 204 205 223
b 195 112 130 131 132 150
b 196 147 165 166 167 185
b 197 209 227 228
b 198 191 210 211
b 199 18 19 38
1 2
2 4
3 199
3 5
4 128
5 168
6 198
6 8
7 197
7 9
8 112
9 191
10 11
11 127
11 12
12 126
12 13
13 125
13 14
14 124
14 15
15 123
15 16
16 122
16 17
17 19
17 18
19 21
19 20
21 23
21 22
23 30
23 24
24 25
24 28
25 26
25 27
28 29
30 32
30 31
32 101
32 33
33 100
33 34
34 37
34 35
35 36
37 39
37 38
39 99
39 40
40 94
40 41
41 42
42 44
42 43
44 93
44 45
45 86
45 46
46 48
46 47
48 50
48 49
50 57
50 51
51 52
52 53
52 54
52 55
52 56
57 85
57 58
58 60
58 59
60 62
60 78
60 61
62 77
62 63
63 72
63 64
64 66
64 65
66 68
66 67
68 70
68 69
70 133
70 71
72 74
72 75
72 73
72 76
78 79
78 80
78 81
81 82
81 83
81 84
86 87
86 88
86 89
89 92
89 91
89 90
94 95
94 96
94 97
94 98
101 121
101 102
102 120
102 103
103 119
103 104
104 118
104 105
105 106
105 107
107 113
107 108
108 111
108 110
108 109
111 112
113 114
114 115
114 117
114 116
127 128
129 133
130 176
130 177
130 138
131 146
131 195
131 132
132 136
133 134
134 196
134 135
135 175
135 137
136 139
136 137
137 138
139 141
139 142
139 140
142 143
142 144
142 145
146 147
146 148
148 149
148 153
149 152
149 150
150 151
153 171
153 154
154 155
154 156
156 170
156 157
157 158
157 159
159 160
159 165
160 161
161 162
161 164
161 163
165 167
165 169
165 166
167 168
171 172
171 174
171 173
177 194
177 178
178 193
178 179
179 180
179 181
181 182
181 183
183 184
183 185
185 192
185 186
186 187
186 188
188 189
188 190
190 191
